0 73.0
1 73.0
2 70.0
3 65.0
4 60.0
5 55.0
6 78.0
7 68.0
8 65.0
9 61.0
10 65.0
11 71.0
12 81.0
13 63.0
14 71.0
15 64.0
16 66.0
17 77.0
18 65.0
19 57.0
20 75.0
21 68.0
22 70.0
23 71.0
24 62.0
25 62.0
26 65.0
27 60.0
28 59.0
29 54.0
30 73.0
31 67.0
32 70.0
33 58.0
34 70.0
35 64.0
36 70.0
37 62.0
38 64.0
39 55.0
40 59.0
41 58.0
42 54.0
43 52.0
44 60.0
45 51.0
46 55.0
47 48.0
48 77.0
49 67.0
50 75.0
51 71.0
52 69.0
53 75.0
54 83.0
55 77.0
56 85.0
57 73.0
58 75.0
59 69.0
60 70.0
61 68.0
62 74.0
63 60.0
64 70.0
65 58.0
66 74.0
67 78.0
68 70.0
69 66.0
70 76.0
71 68.0
72 73.0
73 55.0
74 68.0
75 61.0
76 60.0
77 71.0
78 67.0
79 59.0
80 72.0
81 63.0
82 54.0
83 53.0
84 57.0
85 55.0
86 67.0
87 53.0
88 60.0
89 48.0
90 62.0
91 68.0
92 52.0
93 56.0
94 63.0
95 61.0
96 65.0
97 57.0
98 70.0
99 63.0
100 68.0
101 69.0
102 55.0
103 53.0
104 66.0
105 57.0
106 58.0
107 51.0
108 65.0
109 69.0
110 71.0
111 67.0
112 64.0
113 56.0
114 66.0
115 72.0
116 60.0
117 64.0
118 61.0
119 59.0
120 78.0
121 78.0
122 75.0
123 70.0
124 65.0
125 60.0
126 93.0
127 83.0
128 80.0
129 76.0
130 80.0
131 86.0
132 83.0
133 65.0
134 73.0
135 66.0
136 68.0
137 79.0
138 71.0
139 63.0
140 81.0
141 74.0
142 76.0
143 77.0
144 77.0
145 77.0
146 67.0
147 62.0
148 65.0
149 60.0
150 85.0
151 83.0
152 73.0
153 73.0
154 73.0
155 75.0
156 82.0
157 65.0
158 80.0
159 70.0
160 75.0
161 82.0
162 70.0
163 55.0
164 72.0
165 62.0
166 67.0
167 72.0
168 82.0
169 72.0
170 77.0
171 73.0
172 75.0
173 81.0
174 75.0
175 73.0
176 78.0
177 78.0
178 68.0
179 70.0
180 62.0
181 61.0
182 70.0
183 65.0
184 66.0
185 62.0
186 70.0
187 71.0
188 62.0
189 67.0
190 68.0
191 72.0
192 78.0
193 60.0
194 83.0
195 76.0
196 66.0
197 77.0
198 85.0
199 68.0
200 91.0
201 81.0
202 73.0
203 80.0
204 75.0
205 74.0
206 76.0
207 71.0
208 69.0
209 65.0
210 71.0
211 87.0
212 70.0
213 83.0
214 81.0
215 78.0
216 70.0
217 62.0
218 85.0
219 78.0
220 70.0
221 71.0
222 69.0
223 54.0
224 77.0
225 67.0
226 69.0
227 74.0
228 79.0
229 80.0
230 72.0
231 77.0
232 65.0
233 69.0
234 67.0
235 83.0
236 74.0
237 87.0
238 75.0
239 72.0
240 64.0
241 64.0
242 67.0
243 62.0
244 61.0
245 56.0
246 74.0
247 68.0
248 71.0
249 59.0
250 71.0
251 65.0
252 64.0
253 56.0
254 58.0
255 49.0
256 53.0
257 52.0
258 56.0
259 54.0
260 62.0
261 53.0
262 57.0
263 50.0
264 74.0
265 74.0
266 64.0
267 59.0
268 62.0
269 57.0
270 71.0
271 69.0
272 59.0
273 59.0
274 59.0
275 61.0
276 74.0
277 57.0
278 72.0
279 62.0
280 67.0
281 74.0
282 66.0
283 51.0
284 68.0
285 58.0
286 63.0
287 68.0
288 85.0
289 79.0
290 79.0
291 67.0
292 77.0
293 71.0
294 72.0
295 70.0
296 70.0
297 70.0
298 64.0
299 66.0
300 69.0
301 55.0
302 73.0
303 67.0
304 61.0
305 69.0
306 73.0
307 61.0
308 69.0
309 69.0
310 63.0
311 75.0
312 69.0
313 61.0
314 73.0
315 64.0
316 56.0
317 55.0
318 82.0
319 65.0
320 77.0
321 67.0
322 69.0
323 76.0
324 76.0
325 62.0
326 67.0
327 61.0
328 58.0
329 66.0
330 62.0
331 65.0
332 71.0
333 73.0
334 70.0
335 69.0
336 57.0
337 55.0
338 67.0
339 58.0
340 52.0
341 45.0
342 66.0
343 51.0
344 63.0
345 53.0
346 61.0
347 66.0
348 72.0
349 60.0
350 59.0
351 59.0
352 50.0
353 62.0
354 54.0
355 57.0
356 67.0
357 69.0
358 60.0
359 59.0
360 86.0
361 76.0
362 84.0
363 80.0
364 78.0
365 84.0
366 81.0
367 75.0
368 83.0
369 71.0
370 73.0
371 67.0
372 76.0
373 74.0
374 80.0
375 66.0
376 76.0
377 64.0
378 78.0
379 82.0
380 74.0
381 70.0
382 80.0
383 72.0
384 76.0
385 66.0
386 71.0
387 67.0
388 69.0
389 75.0
390 68.0
391 66.0
392 71.0
393 71.0
394 61.0
395 63.0
396 66.0
397 65.0
398 74.0
399 69.0
400 70.0
401 66.0
402 68.0
403 69.0
404 60.0
405 65.0
406 66.0
407 70.0
408 82.0
409 76.0
410 76.0
411 64.0
412 74.0
413 68.0
414 79.0
415 77.0
416 77.0
417 77.0
418 71.0
419 73.0
420 81.0
421 67.0
422 85.0
423 79.0
424 73.0
425 81.0
426 75.0
427 63.0
428 71.0
429 71.0
430 65.0
431 77.0
432 66.0
433 64.0
434 65.0
435 51.0
436 64.0
437 52.0
438 69.0
439 68.0
440 69.0
441 64.0
442 67.0
443 63.0
444 73.0
445 59.0
446 74.0
447 68.0
448 60.0
449 68.0
450 70.0
451 57.0
452 69.0
453 65.0
454 57.0
455 66.0
456 74.0
457 78.0
458 69.0
459 65.0
460 70.0
461 62.0
462 73.0
463 74.0
464 65.0
465 70.0
466 69.0
467 73.0
468 69.0
469 57.0
470 66.0
471 66.0
472 62.0
473 74.0
474 72.0
475 59.0
476 75.0
477 71.0
478 67.0
479 76.0
480 78.0
481 60.0
482 73.0
483 66.0
484 65.0
485 76.0
486 67.0
487 59.0
488 72.0
489 63.0
490 54.0
491 53.0
492 72.0
493 70.0
494 82.0
495 68.0
496 75.0
497 63.0
498 65.0
499 71.0
500 55.0
501 59.0
502 66.0
503 64.0
504 81.0
505 63.0
506 86.0
507 79.0
508 69.0
509 80.0
510 80.0
511 63.0
512 86.0
513 76.0
514 68.0
515 75.0
516 75.0
517 74.0
518 76.0
519 71.0
520 69.0
521 65.0
522 68.0
523 84.0
524 67.0
525 80.0
526 78.0
527 75.0
528 75.0
529 67.0
530 79.0
531 70.0
532 62.0
533 61.0
534 85.0
535 68.0
536 80.0
537 70.0
538 72.0
539 79.0
540 90.0
541 76.0
542 81.0
543 75.0
544 72.0
545 80.0
546 63.0
547 66.0
548 72.0
549 74.0
550 71.0
551 70.0
552 75.0
553 73.0
554 74.0
555 60.0
556 73.0
557 61.0
558 65.0
559 64.0
560 65.0
561 60.0
562 63.0
563 59.0
564 75.0
565 61.0
566 76.0
567 70.0
568 62.0
569 70.0
570 69.0
571 56.0
572 68.0
573 64.0
574 56.0
575 65.0
576 71.0
577 77.0
578 60.0
579 64.0
580 76.0
581 74.0
582 70.0
583 86.0
584 69.0
585 82.0
586 75.0
587 72.0
588 60.0
589 63.0
590 70.0
591 72.0
592 74.0
593 73.0
594 81.0
595 68.0
596 71.0
597 67.0
598 69.0
599 78.0
600 64.0
601 56.0
602 69.0
603 62.0
604 67.0
605 68.0
606 53.0
607 51.0
608 64.0
609 55.0
610 56.0
611 49.0
612 68.0
613 72.0
614 74.0
615 70.0
616 67.0
617 59.0
618 59.0
619 65.0
620 53.0
621 57.0
622 54.0
623 52.0
624 63.0
625 55.0
626 78.0
627 71.0
628 63.0
629 64.0
630 62.0
631 47.0
632 70.0
633 60.0
634 62.0
635 67.0
636 67.0
637 68.0
638 60.0
639 65.0
640 53.0
641 57.0
642 58.0
643 74.0
644 65.0
645 78.0
646 66.0
647 63.0
648 53.0
649 51.0
650 63.0
651 54.0
652 48.0
653 41.0
654 63.0
655 48.0
656 60.0
657 50.0
658 58.0
659 63.0
660 74.0
661 62.0
662 61.0
663 61.0
664 52.0
665 64.0
666 53.0
667 56.0
668 66.0
669 68.0
670 59.0
671 58.0
672 73.0
673 77.0
674 68.0
675 64.0
676 69.0
677 61.0
678 63.0
679 64.0
680 55.0
681 60.0
682 59.0
683 63.0
684 69.0
685 57.0
686 66.0
687 66.0
688 62.0
689 74.0
690 59.0
691 46.0
692 62.0
693 58.0
694 54.0
695 63.0
696 61.0
697 67.0
698 50.0
699 54.0
700 66.0
701 64.0
702 64.0
703 80.0
704 63.0
705 76.0
706 69.0
707 66.0
708 58.0
709 61.0
710 68.0
711 70.0
712 72.0
713 71.0
714 69.0
715 56.0
716 59.0
717 55.0
718 57.0
719 66.0
720 83.0
721 83.0
722 80.0
723 75.0
724 70.0
725 65.0
726 88.0
727 78.0
728 75.0
729 71.0
730 75.0
731 81.0
732 91.0
733 73.0
734 81.0
735 74.0
736 76.0
737 87.0
738 75.0
739 67.0
740 85.0
741 78.0
742 80.0
743 81.0
744 69.0
745 69.0
746 72.0
747 67.0
748 66.0
749 61.0
750 80.0
751 74.0
752 77.0
753 65.0
754 77.0
755 71.0
756 77.0
757 69.0
758 71.0
759 62.0
760 66.0
761 65.0
762 61.0
763 59.0
764 67.0
765 58.0
766 62.0
767 55.0
768 81.0
769 71.0
770 79.0
771 75.0
772 73.0
773 79.0
774 87.0
775 81.0
776 89.0
777 77.0
778 79.0
779 73.0
780 74.0
781 72.0
782 78.0
783 64.0
784 74.0
785 62.0
786 78.0
787 82.0
788 74.0
789 70.0
790 80.0
791 72.0
792 86.0
793 68.0
794 81.0
795 74.0
796 73.0
797 84.0
798 80.0
799 72.0
800 85.0
801 76.0
802 67.0
803 66.0
804 70.0
805 68.0
806 80.0
807 66.0
808 73.0
809 61.0
810 75.0
811 81.0
812 65.0
813 69.0
814 76.0
815 74.0
816 68.0
817 60.0
818 73.0
819 66.0
820 71.0
821 72.0
822 58.0
823 56.0
824 69.0
825 60.0
826 61.0
827 54.0
828 68.0
829 72.0
830 74.0
831 70.0
832 67.0
833 59.0
834 69.0
835 75.0
836 63.0
837 67.0
838 64.0
839 62.0
840 85.0
841 85.0
842 82.0
843 77.0
844 72.0
845 67.0
846 97.0
847 87.0
848 84.0
849 80.0
850 84.0
851 90.0
852 96.0
853 78.0
854 86.0
855 79.0
856 81.0
857 92.0
858 74.0
859 66.0
860 84.0
861 77.0
862 79.0
863 80.0
864 78.0
865 78.0
866 77.0
867 72.0
868 65.0
869 60.0
870 92.0
871 80.0
872 79.0
873 79.0
874 89.0
875 71.0
876 77.0
877 72.0
878 67.0
879 61.0
880 79.0
881 74.0
882 83.0
883 73.0
884 84.0
885 80.0
886 72.0
887 78.0
888 85.0
889 73.0
890 84.0
891 74.0
892 72.0
893 67.0
894 70.0
895 66.0
896 70.0
897 77.0
898 72.0
899 78.0
900 88.0
901 70.0
902 90.0
903 83.0
904 72.0
905 83.0
906 86.0
907 68.0
908 88.0
909 70.0
910 76.0
911 71.0
912 76.0
913 69.0
914 71.0
915 84.0
916 71.0
917 82.0
918 70.0
919 62.0
920 82.0
921 75.0
922 76.0
923 77.0
924 70.0
925 64.0
926 84.0
927 76.0
928 80.0
929 87.0
930 82.0
931 75.0
932 77.0
933 90.0
934 75.0
935 76.0
936 74.0
937 74.0
938 77.0
939 72.0
940 71.0
941 66.0
942 78.0
943 72.0
944 75.0
945 63.0
946 75.0
947 69.0
948 77.0
949 69.0
950 71.0
951 62.0
952 66.0
953 65.0
954 59.0
955 57.0
956 65.0
957 56.0
958 60.0
959 53.0
960 81.0
961 81.0
962 80.0
963 75.0
964 68.0
965 63.0
966 81.0
967 69.0
968 68.0
969 68.0
970 84.0
971 66.0
972 72.0
973 67.0
974 66.0
975 60.0
976 78.0
977 73.0
978 92.0
979 86.0
980 89.0
981 77.0
982 77.0
983 71.0
984 88.0
985 76.0
986 79.0
987 73.0
988 85.0
989 64.0
990 79.0
991 67.0
992 79.0
993 70.0
994 85.0
995 79.0
996 85.0
997 77.0
998 83.0
999 74.0
1000 65.0
1001 64.0
1002 89.0
1003 71.0
1004 77.0
1005 69.0
1006 83.0
1007 62.0
1008 73.0
1009 64.0
1010 68.0
1011 65.0
1012 78.0
1013 77.0
1014 63.0
1015 61.0
1016 67.0
1017 58.0
1018 61.0
1019 54.0
1020 73.0
1021 67.0
1022 73.0
1023 71.0
1024 79.0
1025 70.0
1026 75.0
1027 66.0
1028 70.0
1029 67.0
1030 74.0
1031 67.0
1032 96.0
1033 86.0
1034 94.0
1035 90.0
1036 88.0
1037 94.0
1038 88.0
1039 82.0
1040 90.0
1041 78.0
1042 80.0
1043 74.0
1044 89.0
1045 87.0
1046 93.0
1047 79.0
1048 89.0
1049 77.0
1050 81.0
1051 85.0
1052 77.0
1053 73.0
1054 83.0
1055 75.0
1056 89.0
1057 79.0
1058 90.0
1059 86.0
1060 78.0
1061 84.0
1062 84.0
1063 72.0
1064 83.0
1065 73.0
1066 82.0
1067 77.0
1068 80.0
1069 76.0
1070 74.0
1071 81.0
1072 76.0
1073 82.0
1074 95.0
1075 89.0
1076 92.0
1077 80.0
1078 80.0
1079 74.0
1080 98.0
1081 86.0
1082 89.0
1083 83.0
1084 100.0
1085 79.0
1086 94.0
1087 82.0
1088 84.0
1089 75.0
1090 90.0
1091 84.0
1092 85.0
1093 83.0
1094 81.0
1095 67.0
1096 76.0
1097 64.0
1098 82.0
1099 77.0
1100 75.0
1101 73.0
1102 86.0
1103 65.0
1104 83.0
1105 69.0
1106 79.0
1107 63.0
1108 82.0
1109 70.0
1110 83.0
1111 87.0
1112 75.0
1113 71.0
1114 82.0
1115 74.0
1116 86.0
1117 93.0
1118 81.0
1119 85.0
1120 82.0
1121 73.0
1122 85.0
1123 81.0
1124 91.0
1125 75.0
1126 88.0
1127 80.0
1128 88.0
1129 70.0
1130 83.0
1131 76.0
1132 75.0
1133 86.0
1134 74.0
1135 66.0
1136 79.0
1137 70.0
1138 61.0
1139 60.0
1140 76.0
1141 74.0
1142 86.0
1143 72.0
1144 79.0
1145 67.0
1146 68.0
1147 74.0
1148 58.0
1149 62.0
1150 69.0
1151 67.0
1152 85.0
1153 67.0
1154 87.0
1155 80.0
1156 69.0
1157 80.0
1158 78.0
1159 60.0
1160 80.0
1161 62.0
1162 73.0
1163 68.0
1164 73.0
1165 66.0
1166 65.0
1167 78.0
1168 65.0
1169 76.0
1170 79.0
1171 71.0
1172 77.0
1173 68.0
1174 59.0
1175 58.0
1176 86.0
1177 68.0
1178 74.0
1179 66.0
1180 91.0
1181 70.0
1182 81.0
1183 72.0
1184 63.0
1185 60.0
1186 73.0
1187 72.0
1188 76.0
1189 74.0
1190 72.0
1191 58.0
1192 67.0
1193 55.0
1194 69.0
1195 64.0
1196 62.0
1197 60.0
1198 79.0
1199 58.0
1200 76.0
1201 62.0
1202 69.0
1203 53.0
1204 72.0
1205 60.0
1206 71.0
1207 77.0
1208 57.0
1209 61.0
1210 70.0
1211 68.0
1212 74.0
1213 87.0
1214 67.0
1215 73.0
1216 64.0
1217 61.0
1218 71.0
1219 75.0
1220 82.0
1221 66.0
1222 75.0
1223 73.0
1224 74.0
1225 66.0
1226 79.0
1227 72.0
1228 77.0
1229 78.0
1230 60.0
1231 58.0
1232 71.0
1233 62.0
1234 63.0
1235 56.0
1236 72.0
1237 76.0
1238 78.0
1239 74.0
1240 71.0
1241 63.0
1242 72.0
1243 78.0
1244 66.0
1245 70.0
1246 67.0
1247 65.0
1248 77.0
1249 69.0
1250 89.0
1251 82.0
1252 83.0
1253 84.0
1254 70.0
1255 64.0
1256 84.0
1257 76.0
1258 75.0
1259 82.0
1260 77.0
1261 70.0
1262 75.0
1263 88.0
1264 73.0
1265 74.0
1266 67.0
1267 65.0
1268 71.0
1269 62.0
1270 65.0
1271 58.0
1272 74.0
1273 68.0
1274 74.0
1275 72.0
1276 85.0
1277 76.0
1278 81.0
1279 72.0
1280 73.0
1281 70.0
1282 77.0
1283 70.0
1284 84.0
1285 88.0
1286 76.0
1287 72.0
1288 83.0
1289 75.0
1290 77.0
1291 84.0
1292 72.0
1293 76.0
1294 83.0
1295 74.0
1296 86.0
1297 82.0
1298 79.0
1299 63.0
1300 76.0
1301 68.0
1302 81.0
1303 87.0
1304 67.0
1305 71.0
1306 80.0
1307 78.0
1308 78.0
1309 91.0
1310 71.0
1311 77.0
1312 72.0
1313 69.0
1314 79.0
1315 83.0
1316 80.0
1317 64.0
1318 73.0
1319 71.0
1320 74.0
1321 74.0
1322 71.0
1323 66.0
1324 61.0
1325 56.0
1326 89.0
1327 79.0
1328 76.0
1329 72.0
1330 76.0
1331 82.0
1332 79.0
1333 61.0
1334 69.0
1335 62.0
1336 64.0
1337 75.0
1338 67.0
1339 59.0
1340 77.0
1341 70.0
1342 72.0
1343 73.0
1344 75.0
1345 75.0
1346 65.0
1347 60.0
1348 63.0
1349 58.0
1350 83.0
1351 81.0
1352 71.0
1353 71.0
1354 80.0
1355 63.0
1356 78.0
1357 73.0
1358 68.0
1359 53.0
1360 70.0
1361 65.0
1362 87.0
1363 77.0
1364 82.0
1365 78.0
1366 80.0
1367 86.0
1368 80.0
1369 78.0
1370 83.0
1371 73.0
1372 67.0
1373 66.0
1374 75.0
1375 71.0
1376 75.0
1377 76.0
1378 67.0
1379 73.0
1380 79.0
1381 61.0
1382 84.0
1383 77.0
1384 67.0
1385 78.0
1386 86.0
1387 69.0
1388 92.0
1389 74.0
1390 76.0
1391 75.0
1392 77.0
1393 70.0
1394 72.0
1395 88.0
1396 71.0
1397 82.0
1398 65.0
1399 57.0
1400 80.0
1401 73.0
1402 65.0
1403 66.0
1404 64.0
1405 49.0
1406 72.0
1407 64.0
1408 74.0
1409 75.0
1410 67.0
1411 60.0
1412 62.0
1413 78.0
1414 69.0
1415 70.0
1416 71.0
1417 71.0
1418 68.0
1419 63.0
1420 58.0
1421 53.0
1422 83.0
1423 73.0
1424 70.0
1425 66.0
1426 70.0
1427 76.0
1428 82.0
1429 64.0
1430 72.0
1431 65.0
1432 67.0
1433 78.0
1434 60.0
1435 52.0
1436 70.0
1437 63.0
1438 65.0
1439 66.0
1440 69.0
1441 69.0
1442 68.0
1443 63.0
1444 56.0
1445 51.0
1446 83.0
1447 71.0
1448 70.0
1449 70.0
1450 80.0
1451 62.0
1452 68.0
1453 63.0
1454 58.0
1455 52.0
1456 70.0
1457 65.0
1458 84.0
1459 74.0
1460 85.0
1461 81.0
1462 73.0
1463 79.0
1464 86.0
1465 74.0
1466 85.0
1467 75.0
1468 73.0
1469 68.0
1470 71.0
1471 67.0
1472 71.0
1473 78.0
1474 73.0
1475 79.0
1476 76.0
1477 58.0
1478 78.0
1479 71.0
1480 60.0
1481 71.0
1482 74.0
1483 56.0
1484 76.0
1485 58.0
1486 64.0
1487 59.0
1488 64.0
1489 57.0
1490 59.0
1491 72.0
1492 59.0
1493 70.0
1494 62.0
1495 54.0
1496 74.0
1497 67.0
1498 68.0
1499 69.0
1500 62.0
1501 56.0
1502 76.0
1503 68.0
1504 72.0
1505 79.0
1506 74.0
1507 67.0
1508 69.0
1509 82.0
1510 67.0
1511 68.0
1512 70.0
1513 70.0
1514 60.0
1515 55.0
1516 58.0
1517 53.0
1518 76.0
1519 74.0
1520 64.0
1521 64.0
1522 75.0
1523 58.0
1524 73.0
1525 68.0
1526 61.0
1527 46.0
1528 63.0
1529 58.0
1530 67.0
1531 67.0
1532 66.0
1533 61.0
1534 54.0
1535 49.0
1536 82.0
1537 70.0
1538 69.0
1539 69.0
1540 72.0
1541 54.0
1542 60.0
1543 55.0
1544 58.0
1545 52.0
1546 70.0
1547 65.0
1548 75.0
1549 73.0
1550 78.0
1551 66.0
1552 84.0
1553 72.0
1554 77.0
1555 75.0
1556 72.0
1557 62.0
1558 62.0
1559 72.0
1560 81.0
1561 64.0
1562 85.0
1563 67.0
1564 72.0
1565 54.0
1566 75.0
1567 58.0
1568 70.0
1569 69.0
1570 64.0
1571 65.0
1572 59.0
1573 44.0
1574 65.0
1575 59.0
1576 60.0
1577 54.0
1578 75.0
1579 60.0
1580 62.0
1581 71.0
1582 66.0
1583 57.0
1584 72.0
1585 62.0
1586 67.0
1587 63.0
1588 65.0
1589 71.0
1590 66.0
1591 64.0
1592 69.0
1593 59.0
1594 67.0
1595 66.0
1596 75.0
1597 71.0
1598 63.0
1599 64.0
1600 55.0
1601 61.0
1602 75.0
1603 65.0
1604 76.0
1605 72.0
1606 64.0
1607 70.0
1608 75.0
1609 63.0
1610 74.0
1611 64.0
1612 70.0
1613 65.0
1614 68.0
1615 64.0
1616 66.0
1617 73.0
1618 68.0
1619 74.0
1620 68.0
1621 66.0
1622 71.0
1623 59.0
1624 74.0
1625 62.0
1626 67.0
1627 65.0
1628 77.0
1629 67.0
1630 57.0
1631 67.0
1632 61.0
1633 60.0
1634 63.0
1635 58.0
1636 55.0
1637 50.0
1638 53.0
1639 52.0
1640 63.0
1641 59.0
1642 55.0
1643 59.0
1644 59.0
1645 60.0
1646 53.0
1647 60.0
1648 63.0
1649 70.0
1650 63.0
1651 64.0
1652 55.0
1653 61.0
1654 67.0
1655 61.0
1656 77.0
1657 59.0
1658 82.0
1659 75.0
1660 65.0
1661 76.0
1662 78.0
1663 61.0
1664 84.0
1665 66.0
1666 80.0
1667 79.0
1668 81.0
1669 74.0
1670 63.0
1671 79.0
1672 62.0
1673 73.0
1674 71.0
1675 53.0
1676 73.0
1677 66.0
1678 55.0
1679 66.0
1680 69.0
1681 51.0
1682 71.0
1683 53.0
1684 74.0
1685 69.0
1686 74.0
1687 67.0
1688 57.0
1689 70.0
1690 57.0
1691 68.0
1692 78.0
1693 61.0
1694 82.0
1695 64.0
1696 75.0
1697 57.0
1698 78.0
1699 61.0
1700 81.0
1701 80.0
1702 62.0
1703 63.0
1704 65.0
1705 64.0
1706 67.0
1707 62.0
1708 68.0
1709 63.0
1710 66.0
1711 65.0
1712 69.0
1713 65.0
1714 58.0
1715 62.0
1716 60.0
1717 76.0
1718 61.0
1719 74.0
1720 64.0
1721 77.0
1722 62.0
1723 78.0
1724 63.0
1725 60.0
1726 71.0
1727 74.0
1728 59.0
1729 51.0
1730 74.0
1731 67.0
1732 59.0
1733 60.0
1734 60.0
1735 45.0
1736 68.0
1737 60.0
1738 72.0
1739 73.0
1740 65.0
1741 58.0
1742 59.0
1743 75.0
1744 66.0
1745 67.0
1746 63.0
1747 55.0
1748 75.0
1749 68.0
1750 69.0
1751 70.0
1752 61.0
1753 55.0
1754 75.0
1755 67.0
1756 76.0
1757 83.0
1758 78.0
1759 71.0
1760 63.0
1761 76.0
1762 61.0
1763 62.0
1764 62.0
1765 47.0
1766 68.0
1767 62.0
1768 59.0
1769 53.0
1770 74.0
1771 59.0
1772 67.0
1773 76.0
1774 68.0
1775 59.0
1776 69.0
1777 70.0
1778 63.0
1779 70.0
1780 72.0
1781 79.0
1782 72.0
1783 73.0
1784 65.0
1785 71.0
1786 64.0
1787 58.0
1788 66.0
1789 82.0
1790 67.0
1791 80.0
1792 60.0
1793 73.0
1794 58.0
1795 74.0
1796 67.0
1797 64.0
1798 65.0
1799 68.0
1800 73.0
1801 73.0
1802 76.0
1803 71.0
1804 70.0
1805 65.0
1806 83.0
1807 77.0
1808 80.0
1809 80.0
1810 73.0
1811 65.0
1812 67.0
1813 62.0
1814 65.0
1815 63.0
1816 71.0
1817 66.0
1818 88.0
1819 88.0
1820 78.0
1821 73.0
1822 76.0
1823 71.0
1824 85.0
1825 83.0
1826 73.0
1827 73.0
1828 88.0
1829 71.0
1830 86.0
1831 81.0
1832 80.0
1833 65.0
1834 82.0
1835 77.0
1836 92.0
1837 86.0
1838 86.0
1839 84.0
1840 79.0
1841 77.0
1842 77.0
1843 71.0
1844 76.0
1845 80.0
1846 80.0
1847 76.0
1848 78.0
1849 70.0
1850 82.0
1851 65.0
1852 91.0
1853 74.0
1854 86.0
1855 78.0
1856 85.0
1857 76.0
1858 71.0
1859 80.0
1860 64.0
1861 62.0
1862 74.0
1863 59.0
1864 73.0
1865 58.0
1866 70.0
1867 68.0
1868 79.0
1869 66.0
1870 61.0
1871 74.0
1872 76.0
1873 76.0
1874 79.0
1875 74.0
1876 73.0
1877 68.0
1878 80.0
1879 74.0
1880 77.0
1881 77.0
1882 79.0
1883 71.0
1884 73.0
1885 68.0
1886 61.0
1887 59.0
1888 67.0
1889 62.0
1890 85.0
1891 85.0
1892 84.0
1893 79.0
1894 72.0
1895 67.0
1896 85.0
1897 73.0
1898 72.0
1899 72.0
1900 88.0
1901 70.0
1902 76.0
1903 71.0
1904 70.0
1905 64.0
1906 82.0
1907 77.0
1908 95.0
1909 89.0
1910 92.0
1911 80.0
1912 91.0
1913 79.0
1914 82.0
1915 76.0
1916 88.0
1917 82.0
1918 82.0
1919 88.0
1920 81.0
1921 73.0
1922 79.0
1923 61.0
1924 85.0
1925 67.0
1926 73.0
1927 65.0
1928 79.0
1929 69.0
1930 64.0
1931 74.0
1932 67.0
1933 65.0
1934 71.0
1935 65.0
1936 77.0
1937 71.0
1938 77.0
1939 75.0
1940 83.0
1941 79.0
1942 74.0
1943 78.0
1944 86.0
1945 86.0
1946 76.0
1947 71.0
1948 74.0
1949 69.0
1950 92.0
1951 90.0
1952 80.0
1953 80.0
1954 91.0
1955 74.0
1956 89.0
1957 84.0
1958 77.0
1959 62.0
1960 79.0
1961 74.0
1962 80.0
1963 80.0
1964 79.0
1965 74.0
1966 67.0
1967 62.0
1968 95.0
1969 83.0
1970 82.0
1971 82.0
1972 85.0
1973 67.0
1974 73.0
1975 68.0
1976 71.0
1977 65.0
1978 83.0
1979 78.0
1980 77.0
1981 75.0
1982 80.0
1983 68.0
1984 86.0
1985 74.0
1986 79.0
1987 77.0
1988 74.0
1989 64.0
1990 64.0
1991 74.0
1992 89.0
1993 72.0
1994 93.0
1995 75.0
1996 80.0
1997 62.0
1998 83.0
1999 66.0
2000 78.0
2001 77.0
2002 72.0
2003 73.0
2004 71.0
2005 56.0
2006 77.0
2007 71.0
2008 72.0
2009 66.0
2010 87.0
2011 72.0
2012 74.0
2013 83.0
2014 78.0
2015 69.0
2016 91.0
2017 85.0
2018 85.0
2019 83.0
2020 93.0
2021 91.0
2022 91.0
2023 85.0
2024 90.0
2025 94.0
2026 82.0
2027 78.0
2028 97.0
2029 91.0
2030 94.0
2031 82.0
2032 102.0
2033 90.0
2034 93.0
2035 87.0
2036 96.0
2037 90.0
2038 88.0
2039 94.0
2040 84.0
2041 82.0
2042 87.0
2043 75.0
2044 87.0
2045 75.0
2046 80.0
2047 78.0
2048 85.0
2049 75.0
2050 69.0
2051 79.0
2052 84.0
2053 90.0
2054 81.0
2055 80.0
2056 85.0
2057 78.0
2058 78.0
2059 80.0
2060 85.0
2061 90.0
2062 81.0
2063 84.0
2064 84.0
2065 76.0
2066 88.0
2067 71.0
2068 99.0
2069 82.0
2070 94.0
2071 86.0
2072 97.0
2073 88.0
2074 70.0
2075 79.0
2076 81.0
2077 73.0
2078 79.0
2079 61.0
2080 90.0
2081 72.0
2082 78.0
2083 70.0
2084 94.0
2085 84.0
2086 67.0
2087 77.0
2088 94.0
2089 77.0
2090 98.0
2091 80.0
2092 88.0
2093 70.0
2094 91.0
2095 74.0
2096 83.0
2097 82.0
2098 74.0
2099 75.0
2100 82.0
2101 88.0
2102 88.0
2103 87.0
2104 79.0
2105 72.0
2106 67.0
2107 82.0
2108 74.0
2109 83.0
2110 83.0
2111 77.0
2112 62.0
2113 60.0
2114 72.0
2115 57.0
2116 77.0
2117 62.0
2118 74.0
2119 72.0
2120 81.0
2121 68.0
2122 62.0
2123 75.0
2124 69.0
2125 67.0
2126 73.0
2127 67.0
2128 78.0
2129 72.0
2130 78.0
2131 76.0
2132 88.0
2133 84.0
2134 69.0
2135 73.0
2136 78.0
2137 63.0
2138 84.0
2139 78.0
2140 72.0
2141 66.0
2142 87.0
2143 72.0
2144 69.0
2145 78.0
2146 76.0
2147 67.0
2148 78.0
2149 80.0
2150 84.0
2151 89.0
2152 71.0
2153 74.0
2154 69.0
2155 84.0
2156 66.0
2157 75.0
2158 79.0
2159 73.0
2160 79.0
2161 69.0
2162 77.0
2163 71.0
2164 74.0
2165 68.0
2166 76.0
2167 66.0
2168 69.0
2169 73.0
2170 71.0
2171 67.0
2172 84.0
2173 74.0
2174 79.0
2175 77.0
2176 76.0
2177 74.0
2178 79.0
2179 69.0
2180 74.0
2181 82.0
2182 76.0
2183 68.0
2184 76.0
2185 70.0
2186 70.0
2187 68.0
2188 73.0
2189 71.0
2190 71.0
2191 65.0
2192 75.0
2193 79.0
2194 69.0
2195 65.0
2196 74.0
2197 73.0
2198 77.0
2199 77.0
2200 81.0
2201 82.0
2202 70.0
2203 65.0
2204 69.0
2205 61.0
2206 65.0
2207 62.0
2208 85.0
2209 75.0
2210 83.0
2211 77.0
2212 77.0
2213 71.0
2214 79.0
2215 69.0
2216 78.0
2217 82.0
2218 70.0
2219 66.0
2220 87.0
2221 77.0
2222 88.0
2223 76.0
2224 82.0
2225 70.0
2226 81.0
2227 71.0
2228 80.0
2229 78.0
2230 72.0
2231 74.0
2232 82.0
2233 76.0
2234 79.0
2235 67.0
2236 85.0
2237 73.0
2238 76.0
2239 70.0
2240 87.0
2241 81.0
2242 71.0
2243 77.0
2244 80.0
2245 76.0
2246 77.0
2247 70.0
2248 81.0
2249 78.0
2250 76.0
2251 68.0
2252 79.0
2253 74.0
2254 75.0
2255 78.0
2256 75.0
2257 65.0
2258 70.0
2259 68.0
2260 69.0
2261 67.0
2262 72.0
2263 62.0
2264 70.0
2265 78.0
2266 66.0
2267 58.0
2268 72.0
2269 62.0
2270 73.0
2271 61.0
2272 72.0
2273 60.0
2274 71.0
2275 61.0
2276 67.0
2277 65.0
2278 63.0
2279 65.0
2280 64.0
2281 62.0
2282 67.0
2283 55.0
2284 70.0
2285 58.0
2286 63.0
2287 61.0
2288 73.0
2289 63.0
2290 53.0
2291 63.0
2292 68.0
2293 70.0
2294 62.0
2295 60.0
2296 70.0
2297 66.0
2298 60.0
2299 54.0
2300 64.0
2301 64.0
2302 56.0
2303 62.0
2304 78.0
2305 72.0
2306 72.0
2307 70.0
2308 80.0
2309 78.0
2310 78.0
2311 72.0
2312 77.0
2313 81.0
2314 69.0
2315 65.0
2316 81.0
2317 75.0
2318 78.0
2319 66.0
2320 86.0
2321 74.0
2322 77.0
2323 71.0
2324 80.0
2325 74.0
2326 72.0
2327 78.0
2328 78.0
2329 76.0
2330 81.0
2331 69.0
2332 81.0
2333 69.0
2334 74.0
2335 72.0
2336 79.0
2337 69.0
2338 63.0
2339 73.0
2340 83.0
2341 89.0
2342 80.0
2343 79.0
2344 84.0
2345 77.0
2346 67.0
2347 69.0
2348 74.0
2349 79.0
2350 70.0
2351 73.0
2352 68.0
2353 67.0
2354 73.0
2355 73.0
2356 69.0
2357 70.0
2358 65.0
2359 61.0
2360 67.0
2361 60.0
2362 66.0
2363 63.0
2364 68.0
2365 70.0
2366 65.0
2367 63.0
2368 65.0
2369 61.0
2370 69.0
2371 75.0
2372 72.0
2373 71.0
2374 73.0
2375 66.0
2376 66.0
2377 61.0
2378 71.0
2379 63.0
2380 63.0
2381 60.0
2382 73.0
2383 65.0
2384 75.0
2385 70.0
2386 70.0
2387 73.0
2388 72.0
2389 66.0
2390 69.0
2391 69.0
2392 61.0
2393 67.0
2394 65.0
2395 67.0
2396 68.0
2397 73.0
2398 65.0
2399 68.0
2400 86.0
2401 81.0
2402 75.0
2403 80.0
2404 80.0
2405 90.0
2406 91.0
2407 96.0
2408 90.0
2409 96.0
2410 85.0
2411 86.0
2412 77.0
2413 81.0
2414 87.0
2415 82.0
2416 92.0
2417 83.0
2418 89.0
2419 88.0
2420 79.0
2421 79.0
2422 89.0
2423 90.0
2424 83.0
2425 78.0
2426 69.0
2427 74.0
2428 71.0
2429 81.0
2430 85.0
2431 87.0
2432 78.0
2433 80.0
2434 73.0
2435 73.0
2436 74.0
2437 72.0
2438 81.0
2439 69.0
2440 86.0
2441 76.0
2442 86.0
2443 82.0
2444 79.0
2445 72.0
2446 89.0
2447 86.0
2448 86.0
2449 91.0
2450 87.0
2451 93.0
2452 89.0
2453 90.0
2454 83.0
2455 85.0
2456 81.0
2457 83.0
2458 86.0
2459 86.0
2460 82.0
2461 86.0
2462 79.0
2463 82.0
2464 85.0
2465 84.0
2466 74.0
2467 76.0
2468 77.0
2469 75.0
2470 78.0
2471 74.0
2472 77.0
2473 81.0
2474 92.0
2475 87.0
2476 90.0
2477 81.0
2478 80.0
2479 78.0
2480 89.0
2481 77.0
2482 93.0
2483 83.0
2484 90.0
2485 94.0
2486 84.0
2487 87.0
2488 79.0
2489 78.0
2490 89.0
2491 95.0
2492 95.0
2493 94.0
2494 86.0
2495 79.0
2496 74.0
2497 73.0
2498 79.0
2499 79.0
2500 75.0
2501 76.0
2502 80.0
2503 76.0
2504 82.0
2505 75.0
2506 81.0
2507 78.0
2508 70.0
2509 72.0
2510 67.0
2511 65.0
2512 67.0
2513 63.0
2514 77.0
2515 83.0
2516 80.0
2517 79.0
2518 81.0
2519 74.0
